p cnf 286 1024
1 0
2 0
3 0
4 0
5 0
-6 0
7 0
8 0
9 0
10 0
11 12 13 14 0
-11 -12 0
-11 -13 0
-11 -14 0
-12 -13 0
-12 -14 0
-13 -14 0
15 -1 -16 0
1 -15 -16 0
-15 -1 16 0
1 15 16 0
-11 -16 0
1 -17 -18 0
17 -1 -18 0
18 -1 -17 0
18 1 17 0
-12 18 0
-15 19 0
-17 19 0
15 17 -19 0
1 -19 -20 0
-1 19 -20 0
-1 -19 20 0
1 19 20 0
-13 20 0
15 21 0
17 21 0
-15 -17 -21 0
-1 21 -22 0
1 -21 -22 0
22 -21 -1 0
1 21 22 0
-14 -22 0
17 -23 -24 0
23 -17 -24 0
-17 -23 24 0
17 23 24 0
-11 -24 0
-15 23 -25 0
15 -23 -25 0
25 -23 -15 0
25 23 15 0
-12 25 0
23 -19 -26 0
-23 19 -26 0
-23 -19 26 0
23 19 26 0
-13 26 0
-23 21 -27 0
23 -21 -27 0
27 -21 -23 0
23 21 27 0
-14 -27 0
28 -2 -29 0
2 -28 -29 0
-28 -2 29 0
2 28 29 0
-11 -29 0
2 -30 -31 0
30 -2 -31 0
31 -2 -30 0
31 2 30 0
-12 31 0
-28 32 0
-30 32 0
-33 32 0
-34 32 0
-35 32 0
-36 32 0
-37 32 0
38 0
2 -32 -39 0
-2 32 -39 0
-2 -32 39 0
2 32 39 0
-13 39 0
28 40 0
30 40 0
33 40 0
34 40 0
35 40 0
36 40 0
37 40 0
-41 0
-2 40 -42 0
2 -40 -42 0
42 -40 -2 0
2 40 42 0
-14 -42 0
30 -43 -44 0
43 -30 -44 0
-30 -43 44 0
30 43 44 0
-11 -44 0
43 -33 -45 0
33 -43 -45 0
45 -43 -33 0
45 43 33 0
-12 45 0
-30 46 0
-33 46 0
-34 46 0
-35 46 0
-36 46 0
-37 46 0
30 33 34 35 36 37 -46 0
43 -46 -47 0
-43 46 -47 0
-43 -46 47 0
43 46 47 0
-13 47 0
30 48 0
33 48 0
34 48 0
35 48 0
36 48 0
37 48 0
-49 0
-43 48 -50 0
43 -48 -50 0
50 -48 -43 0
43 48 50 0
-14 -50 0
33 -51 -52 0
51 -33 -52 0
-33 -51 52 0
33 51 52 0
-11 -52 0
51 -34 -53 0
34 -51 -53 0
53 -51 -34 0
53 51 34 0
-12 53 0
-33 54 0
-34 54 0
-35 54 0
-36 54 0
-37 54 0
33 34 35 36 37 -54 0
51 -54 -55 0
-51 54 -55 0
-51 -54 55 0
51 54 55 0
-13 55 0
33 56 0
34 56 0
35 56 0
36 56 0
37 56 0
-57 0
-51 56 -58 0
51 -56 -58 0
58 -56 -51 0
51 56 58 0
-14 -58 0
34 -59 -60 0
59 -34 -60 0
-34 -59 60 0
34 59 60 0
-11 -60 0
59 -35 -61 0
35 -59 -61 0
61 -59 -35 0
61 59 35 0
-12 61 0
-34 62 0
-35 62 0
-36 62 0
-37 62 0
34 35 36 37 -62 0
59 -62 -63 0
-59 62 -63 0
-59 -62 63 0
59 62 63 0
-13 63 0
34 64 0
35 64 0
36 64 0
37 64 0
-65 0
-59 64 -66 0
59 -64 -66 0
66 -64 -59 0
59 64 66 0
-14 -66 0
35 -67 -68 0
67 -35 -68 0
-35 -67 68 0
35 67 68 0
-11 -68 0
67 -36 -69 0
36 -67 -69 0
69 -67 -36 0
69 67 36 0
-12 69 0
67 -62 -70 0
-67 62 -70 0
-67 -62 70 0
67 62 70 0
-13 70 0
-67 64 -71 0
67 -64 -71 0
71 -64 -67 0
67 64 71 0
-14 -71 0
36 -72 -73 0
72 -36 -73 0
-36 -72 73 0
36 72 73 0
-11 -73 0
72 -37 -74 0
37 -72 -74 0
74 -72 -37 0
74 72 37 0
-12 74 0
72 -62 -75 0
-72 62 -75 0
-72 -62 75 0
72 62 75 0
-13 75 0
-72 64 -76 0
72 -64 -76 0
76 -64 -72 0
72 64 76 0
-14 -76 0
37 -77 -78 0
77 -37 -78 0
-37 -77 78 0
37 77 78 0
-11 -78 0
-34 77 -79 0
34 -77 -79 0
79 -77 -34 0
79 77 34 0
-12 79 0
77 -62 -80 0
-77 62 -80 0
-77 -62 80 0
77 62 80 0
-13 80 0
-77 64 -81 0
77 -64 -81 0
81 -64 -77 0
77 64 81 0
-14 -81 0
82 -3 -83 0
3 -82 -83 0
-82 -3 83 0
3 82 83 0
-11 -83 0
3 -84 -85 0
84 -3 -85 0
85 -3 -84 0
85 3 84 0
-12 85 0
-82 86 0
-84 86 0
-87 86 0
-88 86 0
-89 86 0
-90 86 0
-91 86 0
92 0
3 -86 -93 0
-3 86 -93 0
-3 -86 93 0
3 86 93 0
-13 93 0
82 94 0
84 94 0
87 94 0
88 94 0
89 94 0
90 94 0
91 94 0
-95 0
-3 94 -96 0
3 -94 -96 0
96 -94 -3 0
3 94 96 0
-14 -96 0
84 -97 -98 0
97 -84 -98 0
-84 -97 98 0
84 97 98 0
-11 -98 0
97 -87 -99 0
87 -97 -99 0
99 -97 -87 0
99 97 87 0
-12 99 0
-84 100 0
-87 100 0
-88 100 0
-89 100 0
-90 100 0
-91 100 0
101 0
97 -100 -102 0
-97 100 -102 0
-97 -100 102 0
97 100 102 0
-13 102 0
84 103 0
87 103 0
88 103 0
89 103 0
90 103 0
91 103 0
-104 0
-97 103 -105 0
97 -103 -105 0
105 -103 -97 0
97 103 105 0
-14 -105 0
87 -4 -106 0
4 -87 -106 0
-87 -4 106 0
87 4 106 0
-11 -106 0
4 -88 -107 0
88 -4 -107 0
107 -4 -88 0
107 4 88 0
-12 107 0
-87 108 0
-88 108 0
-89 108 0
-90 108 0
-91 108 0
87 88 89 90 91 -108 0
4 -108 -109 0
-4 108 -109 0
-4 -108 109 0
4 108 109 0
-13 109 0
87 110 0
88 110 0
89 110 0
90 110 0
91 110 0
-111 0
-4 110 -112 0
4 -110 -112 0
112 -110 -4 0
4 110 112 0
-14 -112 0
88 -113 -114 0
113 -88 -114 0
-88 -113 114 0
88 113 114 0
-11 -114 0
113 -89 -115 0
89 -113 -115 0
115 -113 -89 0
115 113 89 0
-12 115 0
-88 116 0
-89 116 0
-90 116 0
-91 116 0
88 89 90 91 -116 0
113 -116 -117 0
-113 116 -117 0
-113 -116 117 0
113 116 117 0
-13 117 0
88 118 0
89 118 0
90 118 0
91 118 0
-119 0
-113 118 -120 0
113 -118 -120 0
120 -118 -113 0
113 118 120 0
-14 -120 0
89 -121 -122 0
121 -89 -122 0
-89 -121 122 0
89 121 122 0
-11 -122 0
121 -90 -123 0
90 -121 -123 0
123 -121 -90 0
123 121 90 0
-12 123 0
121 -116 -124 0
-121 116 -124 0
-121 -116 124 0
121 116 124 0
-13 124 0
-121 118 -125 0
121 -118 -125 0
125 -118 -121 0
121 118 125 0
-14 -125 0
90 -126 -127 0
126 -90 -127 0
-90 -126 127 0
90 126 127 0
-11 -127 0
126 -91 -128 0
91 -126 -128 0
128 -126 -91 0
128 126 91 0
-12 128 0
126 -116 -129 0
-126 116 -129 0
-126 -116 129 0
126 116 129 0
-13 129 0
-126 118 -130 0
126 -118 -130 0
130 -118 -126 0
126 118 130 0
-14 -130 0
91 -131 -132 0
131 -91 -132 0
-91 -131 132 0
91 131 132 0
-11 -132 0
-88 131 -133 0
88 -131 -133 0
133 -131 -88 0
133 131 88 0
-12 133 0
131 -116 -134 0
-131 116 -134 0
-131 -116 134 0
131 116 134 0
-13 134 0
-131 118 -135 0
131 -118 -135 0
135 -118 -131 0
131 118 135 0
-14 -135 0
136 -5 -137 0
5 -136 -137 0
-136 -5 137 0
5 136 137 0
-11 -137 0
5 -138 -139 0
138 -5 -139 0
139 -5 -138 0
139 5 138 0
-12 139 0
-136 140 0
-138 140 0
-141 140 0
136 138 141 -140 0
5 -140 -142 0
-5 140 -142 0
-5 -140 142 0
5 140 142 0
-13 142 0
136 143 0
138 143 0
141 143 0
-136 -138 -141 -143 0
-5 143 -144 0
5 -143 -144 0
144 -143 -5 0
5 143 144 0
-14 -144 0
138 -145 -146 0
145 -138 -146 0
-138 -145 146 0
138 145 146 0
-11 -146 0
145 -141 -147 0
141 -145 -147 0
147 -145 -141 0
147 145 141 0
-12 147 0
-138 148 0
-141 148 0
138 141 -148 0
145 -148 -149 0
-145 148 -149 0
-145 -148 149 0
145 148 149 0
-13 149 0
138 150 0
141 150 0
-138 -141 -150 0
-145 150 -151 0
145 -150 -151 0
151 -150 -145 0
145 150 151 0
-14 -151 0
141 -6 -152 0
6 -141 -152 0
-141 -6 152 0
141 6 152 0
-11 -152 0
6 -141 -153 0
141 -6 -153 0
153 -6 -141 0
153 6 141 0
-12 153 0
-13 153 0
-14 153 0
154 -7 -155 0
7 -154 -155 0
-154 -7 155 0
7 154 155 0
-11 -155 0
7 -156 -157 0
156 -7 -157 0
157 -7 -156 0
157 7 156 0
-12 157 0
-154 158 0
-156 158 0
-159 158 0
-160 158 0
-161 158 0
154 156 159 160 161 -158 0
7 -158 -162 0
-7 158 -162 0
-7 -158 162 0
7 158 162 0
-13 162 0
154 163 0
156 163 0
159 163 0
160 163 0
161 163 0
-164 0
-7 163 -165 0
7 -163 -165 0
165 -163 -7 0
7 163 165 0
-14 -165 0
156 -166 -167 0
166 -156 -167 0
-156 -166 167 0
156 166 167 0
-11 -167 0
166 -159 -168 0
159 -166 -168 0
168 -166 -159 0
168 166 159 0
-12 168 0
-156 169 0
-159 169 0
-160 169 0
-161 169 0
156 159 160 161 -169 0
166 -169 -170 0
-166 169 -170 0
-166 -169 170 0
166 169 170 0
-13 170 0
156 171 0
159 171 0
160 171 0
161 171 0
-172 0
-166 171 -173 0
166 -171 -173 0
173 -171 -166 0
166 171 173 0
-14 -173 0
159 -174 -175 0
174 -159 -175 0
-159 -174 175 0
159 174 175 0
-11 -175 0
174 -160 -176 0
160 -174 -176 0
176 -174 -160 0
176 174 160 0
-12 176 0
-159 177 0
-160 177 0
-161 177 0
159 160 161 -177 0
174 -177 -178 0
-174 177 -178 0
-174 -177 178 0
174 177 178 0
-13 178 0
159 179 0
160 179 0
161 179 0
-159 -160 -161 -179 0
-174 179 -180 0
174 -179 -180 0
180 -179 -174 0
174 179 180 0
-14 -180 0
160 -181 -182 0
181 -160 -182 0
-160 -181 182 0
160 181 182 0
-11 -182 0
181 -161 -183 0
161 -181 -183 0
183 -181 -161 0
183 181 161 0
-12 183 0
181 -177 -184 0
-181 177 -184 0
-181 -177 184 0
181 177 184 0
-13 184 0
-181 179 -185 0
181 -179 -185 0
185 -179 -181 0
181 179 185 0
-14 -185 0
161 -186 -187 0
186 -161 -187 0
-161 -186 187 0
161 186 187 0
-11 -187 0
-159 186 -188 0
159 -186 -188 0
188 -186 -159 0
188 186 159 0
-12 188 0
186 -177 -189 0
-186 177 -189 0
-186 -177 189 0
186 177 189 0
-13 189 0
-186 179 -190 0
186 -179 -190 0
190 -179 -186 0
186 179 190 0
-14 -190 0
191 -8 -192 0
8 -191 -192 0
-191 -8 192 0
8 191 192 0
-11 -192 0
8 -193 -194 0
193 -8 -194 0
194 -8 -193 0
194 8 193 0
-12 194 0
-15 195 0
-17 195 0
-191 195 0
-193 195 0
-196 195 0
-197 195 0
15 17 191 193 196 197 -195 0
8 -195 -198 0
-8 195 -198 0
-8 -195 198 0
8 195 198 0
-13 198 0
15 199 0
17 199 0
191 199 0
193 199 0
196 199 0
197 199 0
-200 0
-8 199 -201 0
8 -199 -201 0
201 -199 -8 0
8 199 201 0
-14 -201 0
193 -202 -203 0
202 -193 -203 0
-193 -202 203 0
193 202 203 0
-11 -203 0
202 -196 -204 0
196 -202 -204 0
204 -202 -196 0
204 202 196 0
-12 204 0
-15 205 0
-17 205 0
-193 205 0
-196 205 0
-197 205 0
15 17 193 196 197 -205 0
202 -205 -206 0
-202 205 -206 0
-202 -205 206 0
202 205 206 0
-13 206 0
15 207 0
17 207 0
193 207 0
196 207 0
197 207 0
-208 0
-202 207 -209 0
202 -207 -209 0
209 -207 -202 0
202 207 209 0
-14 -209 0
196 -210 -211 0
210 -196 -211 0
-196 -210 211 0
196 210 211 0
-11 -211 0
210 -197 -212 0
197 -210 -212 0
212 -210 -197 0
212 210 197 0
-12 212 0
-15 213 0
-17 213 0
-196 213 0
-197 213 0
15 17 196 197 -213 0
210 -213 -214 0
-210 213 -214 0
-210 -213 214 0
210 213 214 0
-13 214 0
15 215 0
17 215 0
196 215 0
197 215 0
-216 0
-210 215 -217 0
210 -215 -217 0
217 -215 -210 0
210 215 217 0
-14 -217 0
197 -218 -219 0
218 -197 -219 0
-197 -218 219 0
197 218 219 0
-11 -219 0
-15 218 -220 0
15 -218 -220 0
220 -218 -15 0
220 218 15 0
-12 220 0
-15 221 0
-17 221 0
-197 221 0
15 17 197 -221 0
218 -221 -222 0
-218 221 -222 0
-218 -221 222 0
218 221 222 0
-13 222 0
15 223 0
17 223 0
197 223 0
-15 -17 -197 -223 0
-218 223 -224 0
218 -223 -224 0
224 -223 -218 0
218 223 224 0
-14 -224 0
225 -9 -226 0
9 -225 -226 0
-225 -9 226 0
9 225 226 0
-11 -226 0
9 -227 -228 0
227 -9 -228 0
228 -9 -227 0
228 9 227 0
-12 228 0
-159 229 0
-160 229 0
-161 229 0
-225 229 0
-227 229 0
-230 229 0
-231 229 0
232 0
9 -229 -233 0
-9 229 -233 0
-9 -229 233 0
9 229 233 0
-13 233 0
159 234 0
160 234 0
161 234 0
225 234 0
227 234 0
230 234 0
231 234 0
-235 0
-9 234 -236 0
9 -234 -236 0
236 -234 -9 0
9 234 236 0
-14 -236 0
227 -237 -238 0
237 -227 -238 0
-227 -237 238 0
227 237 238 0
-11 -238 0
237 -230 -239 0
230 -237 -239 0
239 -237 -230 0
239 237 230 0
-12 239 0
-159 240 0
-160 240 0
-161 240 0
-227 240 0
-230 240 0
-231 240 0
241 0
237 -240 -242 0
-237 240 -242 0
-237 -240 242 0
237 240 242 0
-13 242 0
159 243 0
160 243 0
161 243 0
227 243 0
230 243 0
231 243 0
-244 0
-237 243 -245 0
237 -243 -245 0
245 -243 -237 0
237 243 245 0
-14 -245 0
230 -246 -247 0
246 -230 -247 0
-230 -246 247 0
230 246 247 0
-11 -247 0
246 -231 -248 0
231 -246 -248 0
248 -246 -231 0
248 246 231 0
-12 248 0
-159 249 0
-160 249 0
-161 249 0
-230 249 0
-231 249 0
159 160 161 230 231 -249 0
246 -249 -250 0
-246 249 -250 0
-246 -249 250 0
246 249 250 0
-13 250 0
159 251 0
160 251 0
161 251 0
230 251 0
231 251 0
-252 0
-246 251 -253 0
246 -251 -253 0
253 -251 -246 0
246 251 253 0
-14 -253 0
231 -254 -255 0
254 -231 -255 0
-231 -254 255 0
231 254 255 0
-11 -255 0
-161 254 -256 0
161 -254 -256 0
256 -254 -161 0
256 254 161 0
-12 256 0
-159 257 0
-160 257 0
-161 257 0
-231 257 0
159 160 161 231 -257 0
254 -257 -258 0
-254 257 -258 0
-254 -257 258 0
254 257 258 0
-13 258 0
159 259 0
160 259 0
161 259 0
231 259 0
-260 0
-254 259 -261 0
254 -259 -261 0
261 -259 -254 0
254 259 261 0
-14 -261 0
262 -10 -263 0
10 -262 -263 0
-262 -10 263 0
10 262 263 0
-11 -263 0
10 -264 -265 0
264 -10 -265 0
265 -10 -264 0
265 10 264 0
-12 265 0
-15 266 0
-17 266 0
-262 266 0
-264 266 0
-267 266 0
15 17 262 264 267 -266 0
10 -266 -268 0
-10 266 -268 0
-10 -266 268 0
10 266 268 0
-13 268 0
15 269 0
17 269 0
262 269 0
264 269 0
267 269 0
-270 0
-10 269 -271 0
10 -269 -271 0
271 -269 -10 0
10 269 271 0
-14 -271 0
264 -272 -273 0
272 -264 -273 0
-264 -272 273 0
264 272 273 0
-11 -273 0
272 -267 -274 0
267 -272 -274 0
274 -272 -267 0
274 272 267 0
-12 274 0
-15 275 0
-17 275 0
-264 275 0
-267 275 0
15 17 264 267 -275 0
272 -275 -276 0
-272 275 -276 0
-272 -275 276 0
272 275 276 0
-13 276 0
15 277 0
17 277 0
264 277 0
267 277 0
-278 0
-272 277 -279 0
272 -277 -279 0
279 -277 -272 0
272 277 279 0
-14 -279 0
267 -280 -281 0
280 -267 -281 0
-267 -280 281 0
267 280 281 0
-11 -281 0
-17 280 -282 0
17 -280 -282 0
282 -280 -17 0
282 280 17 0
-12 282 0
-15 283 0
-17 283 0
-267 283 0
15 17 267 -283 0
280 -283 -284 0
-280 283 -284 0
-280 -283 284 0
280 283 284 0
-13 284 0
15 285 0
17 285 0
267 285 0
-15 -17 -267 -285 0
-280 285 -286 0
280 -285 -286 0
286 -285 -280 0
280 285 286 0
-14 -286 0
15 0
-17 0
-28 0
-30 0
33 0
-34 0
35 0
-36 0
-37 0
82 0
84 0
-87 0
88 0
89 0
-90 0
91 0
136 0
138 0
-141 0
154 0
-156 0
-159 0
-160 0
161 0
-191 0
-193 0
-196 0
197 0
-225 0
-227 0
-230 0
231 0
262 0
-264 0
-267 0
